; 
(set-info :status unknown)
(declare-fun strA_sym__0___0 () Int)
(declare-fun strA_sym__1___0 () Int)
(declare-fun strA_sym__2___0 () Int)
(declare-fun strA_sym__3___0 () Int)
(declare-fun strA_sym__4___0 () Int)
(declare-fun strA_sym__5___0 () Int)
(declare-fun strA_sym__6___0 () Int)
(declare-fun strA_sym__7___0 () Int)
(declare-fun strA_sym__8___0 () Int)
(declare-fun strA_sym__9___0 () Int)
(declare-fun strA_sym__10___0 () Int)
(declare-fun strA_sym__11___0 () Int)
(declare-fun strA_sym__12___0 () Int)
(declare-fun strA_sym__13___0 () Int)
(declare-fun strA_sym__14___0 () Int)
(declare-fun strA_sym__15___0 () Int)
(declare-fun strA_sym__16___0 () Int)
(declare-fun strA_sym__17___0 () Int)
(declare-fun strA_sym__18___0 () Int)
(declare-fun strA_sym__19___0 () Int)
(declare-fun strA_sym__20___0 () Int)
(declare-fun strA_sym__21___0 () Int)
(declare-fun strA_sym__22___0 () Int)
(declare-fun strA_sym__23___0 () Int)
(declare-fun strA_sym__24___0 () Int)
(declare-fun strA_sym__25___0 () Int)
(declare-fun strA_sym__26___0 () Int)
(declare-fun strA_sym__27___0 () Int)
(declare-fun strA_sym__28___0 () Int)
(declare-fun strA_sym__29___0 () Int)
(declare-fun strA_sym__30___0 () Int)
(declare-fun strA_sym__31___0 () Int)
(declare-fun strA_sym__32___0 () Int)
(declare-fun strA_sym__33___0 () Int)
(declare-fun strA_sym__34___0 () Int)
(declare-fun strA_sym__35___0 () Int)
(declare-fun strA_sym__36___0 () Int)
(declare-fun strA_sym__37___0 () Int)
(declare-fun strA_sym__38___0 () Int)
(declare-fun strA_sym__39___0 () Int)
(declare-fun strA_sym__40___0 () Int)
(declare-fun strA_sym__41___0 () Int)
(declare-fun strA_sym__42___0 () Int)
(declare-fun strA_sym__43___0 () Int)
(declare-fun strA_sym__44___0 () Int)
(declare-fun strA_sym__45___0 () Int)
(declare-fun strA_sym__46___0 () Int)
(declare-fun strA_sym__47___0 () Int)
(declare-fun strB_sym__0___0 () Int)
(declare-fun strB_sym__1___0 () Int)
(declare-fun strB_sym__2___0 () Int)
(declare-fun strB_sym__3___0 () Int)
(declare-fun strB_sym__4___0 () Int)
(declare-fun strB_sym__5___0 () Int)
(declare-fun strB_sym__6___0 () Int)
(declare-fun strB_sym__7___0 () Int)
(declare-fun strB_sym__8___0 () Int)
(declare-fun strB_sym__9___0 () Int)
(declare-fun strB_sym__10___0 () Int)
(declare-fun strB_sym__11___0 () Int)
(declare-fun strB_sym__12___0 () Int)
(declare-fun strB_sym__13___0 () Int)
(declare-fun strB_sym__14___0 () Int)
(declare-fun strB_sym__15___0 () Int)
(declare-fun strB_sym__16___0 () Int)
(declare-fun strB_sym__17___0 () Int)
(declare-fun strB_sym__18___0 () Int)
(declare-fun strB_sym__19___0 () Int)
(declare-fun strB_sym__20___0 () Int)
(declare-fun strB_sym__21___0 () Int)
(declare-fun strB_sym__22___0 () Int)
(declare-fun strB_sym__23___0 () Int)
(declare-fun strB_sym__24___0 () Int)
(declare-fun strB_sym__25___0 () Int)
(declare-fun strB_sym__26___0 () Int)
(declare-fun strB_sym__27___0 () Int)
(declare-fun strB_sym__28___0 () Int)
(declare-fun strB_sym__29___0 () Int)
(declare-fun strB_sym__30___0 () Int)
(declare-fun strB_sym__31___0 () Int)
(declare-fun strB_sym__32___0 () Int)
(declare-fun strB_sym__33___0 () Int)
(declare-fun strB_sym__34___0 () Int)
(declare-fun strB_sym__35___0 () Int)
(declare-fun strB_sym__36___0 () Int)
(declare-fun strB_sym__37___0 () Int)
(declare-fun strB_sym__38___0 () Int)
(declare-fun strB_sym__39___0 () Int)
(declare-fun strB_sym__40___0 () Int)
(declare-fun strB_sym__41___0 () Int)
(declare-fun strB_sym__42___0 () Int)
(declare-fun strB_sym__43___0 () Int)
(declare-fun strB_sym__44___0 () Int)
(declare-fun strB_sym__45___0 () Int)
(declare-fun strB_sym__46___0 () Int)
(declare-fun strB_sym__47___0 () Int)
(assert
 (< strA_sym__0___0 256))
(assert
 (>= strA_sym__0___0 0))
(assert
 (< strA_sym__1___0 256))
(assert
 (>= strA_sym__1___0 0))
(assert
 (< strA_sym__2___0 256))
(assert
 (>= strA_sym__2___0 0))
(assert
 (< strA_sym__3___0 256))
(assert
 (>= strA_sym__3___0 0))
(assert
 (< strA_sym__4___0 256))
(assert
 (>= strA_sym__4___0 0))
(assert
 (< strA_sym__5___0 256))
(assert
 (>= strA_sym__5___0 0))
(assert
 (< strA_sym__6___0 256))
(assert
 (>= strA_sym__6___0 0))
(assert
 (< strA_sym__7___0 256))
(assert
 (>= strA_sym__7___0 0))
(assert
 (< strA_sym__8___0 256))
(assert
 (>= strA_sym__8___0 0))
(assert
 (< strA_sym__9___0 256))
(assert
 (>= strA_sym__9___0 0))
(assert
 (< strA_sym__10___0 256))
(assert
 (>= strA_sym__10___0 0))
(assert
 (< strA_sym__11___0 256))
(assert
 (>= strA_sym__11___0 0))
(assert
 (< strA_sym__12___0 256))
(assert
 (>= strA_sym__12___0 0))
(assert
 (< strA_sym__13___0 256))
(assert
 (>= strA_sym__13___0 0))
(assert
 (< strA_sym__14___0 256))
(assert
 (>= strA_sym__14___0 0))
(assert
 (< strA_sym__15___0 256))
(assert
 (>= strA_sym__15___0 0))
(assert
 (< strA_sym__16___0 256))
(assert
 (>= strA_sym__16___0 0))
(assert
 (< strA_sym__17___0 256))
(assert
 (>= strA_sym__17___0 0))
(assert
 (< strA_sym__18___0 256))
(assert
 (>= strA_sym__18___0 0))
(assert
 (< strA_sym__19___0 256))
(assert
 (>= strA_sym__19___0 0))
(assert
 (< strA_sym__20___0 256))
(assert
 (>= strA_sym__20___0 0))
(assert
 (< strA_sym__21___0 256))
(assert
 (>= strA_sym__21___0 0))
(assert
 (< strA_sym__22___0 256))
(assert
 (>= strA_sym__22___0 0))
(assert
 (< strA_sym__23___0 256))
(assert
 (>= strA_sym__23___0 0))
(assert
 (< strA_sym__24___0 256))
(assert
 (>= strA_sym__24___0 0))
(assert
 (< strA_sym__25___0 256))
(assert
 (>= strA_sym__25___0 0))
(assert
 (< strA_sym__26___0 256))
(assert
 (>= strA_sym__26___0 0))
(assert
 (< strA_sym__27___0 256))
(assert
 (>= strA_sym__27___0 0))
(assert
 (< strA_sym__28___0 256))
(assert
 (>= strA_sym__28___0 0))
(assert
 (< strA_sym__29___0 256))
(assert
 (>= strA_sym__29___0 0))
(assert
 (< strA_sym__30___0 256))
(assert
 (>= strA_sym__30___0 0))
(assert
 (< strA_sym__31___0 256))
(assert
 (>= strA_sym__31___0 0))
(assert
 (< strA_sym__32___0 256))
(assert
 (>= strA_sym__32___0 0))
(assert
 (< strA_sym__33___0 256))
(assert
 (>= strA_sym__33___0 0))
(assert
 (< strA_sym__34___0 256))
(assert
 (>= strA_sym__34___0 0))
(assert
 (< strA_sym__35___0 256))
(assert
 (>= strA_sym__35___0 0))
(assert
 (< strA_sym__36___0 256))
(assert
 (>= strA_sym__36___0 0))
(assert
 (< strA_sym__37___0 256))
(assert
 (>= strA_sym__37___0 0))
(assert
 (< strA_sym__38___0 256))
(assert
 (>= strA_sym__38___0 0))
(assert
 (< strA_sym__39___0 256))
(assert
 (>= strA_sym__39___0 0))
(assert
 (< strA_sym__40___0 256))
(assert
 (>= strA_sym__40___0 0))
(assert
 (< strA_sym__41___0 256))
(assert
 (>= strA_sym__41___0 0))
(assert
 (< strA_sym__42___0 256))
(assert
 (>= strA_sym__42___0 0))
(assert
 (< strA_sym__43___0 256))
(assert
 (>= strA_sym__43___0 0))
(assert
 (< strA_sym__44___0 256))
(assert
 (>= strA_sym__44___0 0))
(assert
 (< strA_sym__45___0 256))
(assert
 (>= strA_sym__45___0 0))
(assert
 (< strA_sym__46___0 256))
(assert
 (>= strA_sym__46___0 0))
(assert
 (< strA_sym__47___0 256))
(assert
 (>= strA_sym__47___0 0))
(assert
 (< strB_sym__0___0 256))
(assert
 (>= strB_sym__0___0 0))
(assert
 (< strB_sym__1___0 256))
(assert
 (>= strB_sym__1___0 0))
(assert
 (< strB_sym__2___0 256))
(assert
 (>= strB_sym__2___0 0))
(assert
 (< strB_sym__3___0 256))
(assert
 (>= strB_sym__3___0 0))
(assert
 (< strB_sym__4___0 256))
(assert
 (>= strB_sym__4___0 0))
(assert
 (< strB_sym__5___0 256))
(assert
 (>= strB_sym__5___0 0))
(assert
 (< strB_sym__6___0 256))
(assert
 (>= strB_sym__6___0 0))
(assert
 (< strB_sym__7___0 256))
(assert
 (>= strB_sym__7___0 0))
(assert
 (< strB_sym__8___0 256))
(assert
 (>= strB_sym__8___0 0))
(assert
 (< strB_sym__9___0 256))
(assert
 (>= strB_sym__9___0 0))
(assert
 (< strB_sym__10___0 256))
(assert
 (>= strB_sym__10___0 0))
(assert
 (< strB_sym__11___0 256))
(assert
 (>= strB_sym__11___0 0))
(assert
 (< strB_sym__12___0 256))
(assert
 (>= strB_sym__12___0 0))
(assert
 (< strB_sym__13___0 256))
(assert
 (>= strB_sym__13___0 0))
(assert
 (< strB_sym__14___0 256))
(assert
 (>= strB_sym__14___0 0))
(assert
 (< strB_sym__15___0 256))
(assert
 (>= strB_sym__15___0 0))
(assert
 (< strB_sym__16___0 256))
(assert
 (>= strB_sym__16___0 0))
(assert
 (< strB_sym__17___0 256))
(assert
 (>= strB_sym__17___0 0))
(assert
 (< strB_sym__18___0 256))
(assert
 (>= strB_sym__18___0 0))
(assert
 (< strB_sym__19___0 256))
(assert
 (>= strB_sym__19___0 0))
(assert
 (< strB_sym__20___0 256))
(assert
 (>= strB_sym__20___0 0))
(assert
 (< strB_sym__21___0 256))
(assert
 (>= strB_sym__21___0 0))
(assert
 (< strB_sym__22___0 256))
(assert
 (>= strB_sym__22___0 0))
(assert
 (< strB_sym__23___0 256))
(assert
 (>= strB_sym__23___0 0))
(assert
 (< strB_sym__24___0 256))
(assert
 (>= strB_sym__24___0 0))
(assert
 (< strB_sym__25___0 256))
(assert
 (>= strB_sym__25___0 0))
(assert
 (< strB_sym__26___0 256))
(assert
 (>= strB_sym__26___0 0))
(assert
 (< strB_sym__27___0 256))
(assert
 (>= strB_sym__27___0 0))
(assert
 (< strB_sym__28___0 256))
(assert
 (>= strB_sym__28___0 0))
(assert
 (< strB_sym__29___0 256))
(assert
 (>= strB_sym__29___0 0))
(assert
 (< strB_sym__30___0 256))
(assert
 (>= strB_sym__30___0 0))
(assert
 (< strB_sym__31___0 256))
(assert
 (>= strB_sym__31___0 0))
(assert
 (< strB_sym__32___0 256))
(assert
 (>= strB_sym__32___0 0))
(assert
 (< strB_sym__33___0 256))
(assert
 (>= strB_sym__33___0 0))
(assert
 (< strB_sym__34___0 256))
(assert
 (>= strB_sym__34___0 0))
(assert
 (< strB_sym__35___0 256))
(assert
 (>= strB_sym__35___0 0))
(assert
 (< strB_sym__36___0 256))
(assert
 (>= strB_sym__36___0 0))
(assert
 (< strB_sym__37___0 256))
(assert
 (>= strB_sym__37___0 0))
(assert
 (< strB_sym__38___0 256))
(assert
 (>= strB_sym__38___0 0))
(assert
 (< strB_sym__39___0 256))
(assert
 (>= strB_sym__39___0 0))
(assert
 (< strB_sym__40___0 256))
(assert
 (>= strB_sym__40___0 0))
(assert
 (< strB_sym__41___0 256))
(assert
 (>= strB_sym__41___0 0))
(assert
 (< strB_sym__42___0 256))
(assert
 (>= strB_sym__42___0 0))
(assert
 (< strB_sym__43___0 256))
(assert
 (>= strB_sym__43___0 0))
(assert
 (< strB_sym__44___0 256))
(assert
 (>= strB_sym__44___0 0))
(assert
 (< strB_sym__45___0 256))
(assert
 (>= strB_sym__45___0 0))
(assert
 (< strB_sym__46___0 256))
(assert
 (>= strB_sym__46___0 0))
(assert
 (< strB_sym__47___0 256))
(assert
 (>= strB_sym__47___0 0))
(assert
 (= strA_sym__0___0 strB_sym__0___0))
(assert
 (= strA_sym__1___0 strB_sym__1___0))
(assert
 (= strA_sym__2___0 strB_sym__2___0))
(assert
 (= strA_sym__3___0 strB_sym__3___0))
(assert
 (= strA_sym__4___0 strB_sym__4___0))
(assert
 (= strA_sym__5___0 strB_sym__5___0))
(assert
 (= strA_sym__6___0 strB_sym__6___0))
(assert
 (= strA_sym__7___0 strB_sym__7___0))
(assert
 (= strA_sym__8___0 strB_sym__8___0))
(assert
 (= strA_sym__9___0 strB_sym__9___0))
(assert
 (= strA_sym__10___0 strB_sym__10___0))
(assert
 (= strA_sym__11___0 strB_sym__11___0))
(assert
 (= strA_sym__12___0 strB_sym__12___0))
(assert
 (= strA_sym__13___0 strB_sym__13___0))
(assert
 (= strA_sym__14___0 strB_sym__14___0))
(assert
 (= strA_sym__15___0 strB_sym__15___0))
(assert
 (= strA_sym__16___0 strB_sym__16___0))
(assert
 (= strA_sym__17___0 strB_sym__17___0))
(assert
 (= strA_sym__18___0 strB_sym__18___0))
(assert
 (= strA_sym__19___0 strB_sym__19___0))
(assert
 (= strA_sym__20___0 strB_sym__20___0))
(assert
 (= strA_sym__21___0 strB_sym__21___0))
(assert
 (= strA_sym__22___0 strB_sym__22___0))
(assert
 (= strA_sym__23___0 strB_sym__23___0))
(assert
 (= strA_sym__24___0 strB_sym__24___0))
(assert
 (= strA_sym__25___0 strB_sym__25___0))
(assert
 (= strA_sym__26___0 strB_sym__26___0))
(assert
 (= strA_sym__27___0 strB_sym__27___0))
(assert
 (= strA_sym__28___0 strB_sym__28___0))
(assert
 (= strA_sym__29___0 strB_sym__29___0))
(assert
 (= strA_sym__30___0 strB_sym__30___0))
(assert
 (= strA_sym__31___0 strB_sym__31___0))
(assert
 (= strA_sym__32___0 strB_sym__32___0))
(assert
 (= strA_sym__33___0 strB_sym__33___0))
(assert
 (= strA_sym__34___0 strB_sym__34___0))
(assert
 (= strA_sym__35___0 strB_sym__35___0))
(assert
 (= strA_sym__36___0 strB_sym__36___0))
(assert
 (= strA_sym__37___0 strB_sym__37___0))
(assert
 (= strA_sym__38___0 strB_sym__38___0))
(assert
 (= strA_sym__39___0 strB_sym__39___0))
(assert
 (= strA_sym__40___0 strB_sym__40___0))
(assert
 (= strA_sym__41___0 strB_sym__41___0))
(assert
 (= strA_sym__42___0 strB_sym__42___0))
(assert
 (= strA_sym__43___0 strB_sym__43___0))
(assert
 (= strA_sym__44___0 strB_sym__44___0))
(assert
 (= strA_sym__45___0 strB_sym__45___0))
(assert
 (= strA_sym__46___0 strB_sym__46___0))
(assert
 (and (distinct strA_sym__47___0 strB_sym__47___0) true))
(check-sat)
